141
conf-01; fixed-heavy-atom HF/6-31G* ESP conformer; H6 coordinates were not QM optimized
H   100.028835562406  73.972667474858  67.029660599589
O   100.030999993572  73.198999995296  67.563999995658
C   98.915999993644  72.386999995350  67.207999995682
H   98.012532466080  72.984261577977  67.146077103644
H   98.766595556135  71.679341796535  68.009874439357
C   99.188999993628  71.677999995394  65.903999995766
H   98.457175015478  71.951431658639  65.149434012255
O   100.490999993544  72.044999995372  65.422999995796
C   100.750999993526  71.128999995430  64.333999995866
H   100.194573917725  71.411184378972  63.459648992626
N   102.179999993434  71.103999995432  63.895999995894
C   103.230999993368  71.097999995432  64.775999995838
H   102.964685860065  71.139377810607  65.815358456273
C   104.501999993286  71.066999995434  64.348999995866
H   105.313952373171  71.066302684175  65.052217390517
C   104.728999993272  71.033999995436  62.945999995956
N   105.973999993192  70.996999995438  62.461999995986
H   106.087247639517  70.885194242915  61.480236946149
H   106.759253743973  70.869843601026  63.055032913825
N   103.722999993336  71.037999995436  62.076999996012
C   102.444999993418  71.075999995434  62.515999995984
O   101.502999993478  71.092999995432  61.708999996036
C   99.252999993622  70.157999995492  65.953999995762
H   99.642611377992  69.846836655211  66.911825118565
C   100.248999993558  69.773999995516  64.847999995834
H   101.061153561112  69.180555370230  65.251513812060
O   99.617999993600  69.100999995560  63.764999995904
H   100.073758329315  68.298659231320  63.563163403769
O   97.980999993704  69.578999995530  65.701999995778
P   97.337999993746  68.581999995594  66.778999995710
O   96.596999993794  67.558999995660  66.019999995758
O   96.646999993790  69.385999995542  67.812999995642
O   98.587999993666  67.864999995640  67.452999995666
C   98.537999993668  66.484999995728  67.783999995644
H   97.684670448107  66.029794994926  67.301838614767
H   98.441464274349  66.395219722687  68.862241109380
C   99.791999993588  65.786999995774  67.323999995674
H   99.950247008939  65.979302636073  66.271835361291
O   100.925999993516  66.314999995740  68.058999995628
C   101.837999993456  65.280999995806  68.343999995608
H   102.786861429600  65.495942767923  67.879448570333
N   102.139999993438  65.209999995810  69.793999995516
C   101.322999993490  65.510999995790  70.856999995448
H   100.335594449386  65.895345049593  70.708573502744
N   101.878999993454  65.307999995804  72.029999995372
C   103.151999993372  64.842999995834  71.725999995392
C   104.241999993302  64.433999995860  72.525999995340
N   104.242999993302  64.400999995862  73.865999995254
H   105.056700717482  64.079748339771  74.335166544412
H   103.437488961875  64.675956482071  74.377787786731
N   105.363999993230  64.030999995886  71.891999995380
C   105.387999993228  64.029999995886  70.553999995466
H   106.311580709300  63.694897747508  70.116169472222
N   104.432999993290  64.382999995864  69.697999995522
C   103.326999993362  64.784999995838  70.350999995480
C   99.814999993586  64.284999995870  67.566999995658
H   99.244098659018  64.046567929866  68.455519134228
C   101.281999993492  63.963999995890  67.809999995644
H   101.411661495825  63.155160687289  68.515662195986
O   101.986999993448  63.674999995908  66.605999995720
H   102.867394512610  63.407736285881  66.840641927310
O   99.350999993616  63.518999995918  66.469999995730
C   95.059999993892  57.608999996298  70.888999995446
N   94.327999993940  58.464999996244  71.791999995388
C   94.182999993948  58.164999996262  73.111999995302
O   92.945999994028  57.650999996296  73.315999995290
C   92.921999994030  56.280999996384  73.745999995262
C   91.992999994090  56.096999996396  74.941999995184
C   92.738999994042  56.175999996390  76.275999995100
C   92.213999994076  57.296999996318  77.178999995042
C   93.038999994022  57.481999996306  78.454999994960
C   93.864999993970  56.299999996382  78.838999994934
O   95.032999993894  58.328999996252  73.971999995248
C   95.689999993852  58.389999996248  69.736999995520
C   97.043999993764  57.842999996284  69.274999995549
C   97.872999993712  58.872999996218  68.497999995598
C   98.395999993678  60.054999996142  69.348999995544
C   99.402999993614  59.654999996168  70.428999995474
O   99.277999993622  60.477999996114  71.578999995400
C   98.943999993642  61.233999996066  68.518999995598
O   99.106999993632  60.971999996082  67.123999995688
P   98.997999993640  62.059999996012  65.931999995764
O   97.530999993734  61.558999996044  65.329999995802
O   99.834999993586  61.222999996066  64.840999995834
H   95.848772646629  57.087342807111  71.431538642382
H   94.393225387496  56.841109534030  70.506474008658
H   94.824787465652  59.344071558622  71.781926098992
H   92.578072440816  55.707686062595  72.893768775184
H   93.925763768257  55.961476725355  73.987921947034
H   91.508816436674  55.129102374740  74.848607113390
H   91.208606800113  56.841857523871  74.872741922173
H   92.656403972121  55.218453409077  76.769483494129
H   93.793617886195  56.350204776456  76.089377116984
H   92.200343289975  58.218170768909  76.606642176621
H   91.178704772088  57.079284377643  77.430984639916
H   92.366928353042  57.634393391017  79.291649433648
H   93.629100660853  58.388791404979  78.381677938029
H   93.343916601915  55.408267691261  78.514820952062
H   95.820133962923  59.417206487111  70.057526008948
H   95.004810399930  58.436738486380  68.896972096823
H   97.598603916127  57.484810403798  70.138112369274
H   96.887573668908  56.970410042810  68.644262130987
H   97.298544837067  59.287667540382  67.677413608207
H   98.713486617269  58.374523383225  68.024562844425
H   97.554268813628  60.453242050166  69.905915373831
H   100.414044050731  59.715503921279  70.032000484481
H   99.251781966859  58.620746871610  70.728640372153
H   99.944526316582  60.227519098642  72.201787603185
H   99.897129934374  61.539541922780  68.940404927991
H   98.262703490148  62.068764255354  68.647687032114
H   93.806575130845  56.199393497615  79.912517557069
N   96.168999993822  57.835999996284  82.539999994696
C   96.059999993828  57.600999996300  83.953999994606
C   96.590999993794  56.286999996384  84.431999994576
N   95.707999993850  55.513999996434  85.118999994532
C   94.407999993934  55.776999996416  85.409999994512
C   93.802999993974  57.026999996336  84.819999994550
C   94.843999993906  58.138999996264  84.676999994560
O   93.757999993976  55.034999996464  86.120999994466
O   97.706999993722  55.895999996408  84.196999994590
C   96.571999993796  58.997999996210  82.011999994730
O   96.911999993774  59.984999996146  82.636999994690
C   96.527999993798  58.818999996220  80.549999994824
C   96.045999993828  57.546999996302  80.288999994842
C   95.799999993844  56.902999996344  81.608999994756
O   95.372999993872  55.787999996416  81.852999994740
C   95.874999993840  57.097999996332  78.970999994926
C   96.239999993816  57.982999996274  77.932999994992
C   96.736999993784  59.265999996192  78.210999994974
C   96.881999993776  59.700999996164  79.534999994890
N   95.382999993872  55.878999996410  78.646999994946
H   96.813313902731  58.328111572059  84.330808084780
H   96.074835559760  54.647953461260  85.458402274361
H   92.980158971501  57.309482614062  85.463230008238
H   93.385417021128  56.770284828323  83.849768929214
H   94.433527694312  58.963392738184  84.108987742555
H   95.093075568800  58.553447023797  85.649536206155
H   96.116149907103  57.678030201821  76.909491309407
H   96.998030081448  59.917464479828  77.397852989348
H   97.253317909748  60.681290372983  79.765333640011
H   95.557575967255  55.700565754849  77.675372136508
