141
conf-03; fixed-heavy-atom HF/6-31G* ESP conformer; H6 coordinates were not QM optimized
H   93.737041887648  70.095491918149  74.631865215271
O   93.922999996983  69.198999997777  74.394999997610
C   94.890999996952  69.194999997777  73.349999997644
H   94.723521323476  70.016673686520  72.663453117484
H   94.746412562300  68.280244426755  72.796110347821
C   96.280999996907  69.268999997775  73.932999997625
H   96.805884571543  70.154503865308  73.589071371759
O   96.194999996910  69.321999997773  75.364999997579
C   97.454999996869  69.008999997783  75.887999997562
H   98.078032882876  69.877385408402  75.982737924090
N   97.332999996873  68.469999997800  77.264999997518
C   96.601999996897  67.344999997837  77.527999997509
H   96.138489137227  66.888050554726  76.675648192354
C   96.469999996901  66.881999997851  78.770999997469
H   95.887493783341  66.003228307071  78.971867476654
C   97.114999996880  67.599999997828  79.808999997436
N   96.992999996884  67.176999997842  81.057999997396
H   97.482570522449  67.653741642950  81.780471464573
H   96.517372408619  66.331550292554  81.268624232998
N   97.838999996857  68.686999997793  79.577999997444
C   97.973999996853  69.145999997779  78.315999997484
O   98.674999996830  70.139999997747  78.068999997492
C   97.187999996878  68.071999997813  73.682999997633
H   96.596965700680  67.169408153653  73.645752799801
C   98.102999996848  68.013999997815  74.917999997593
H   98.118133266073  67.005544335084  75.313753530448
O   99.434999996806  68.447999997801  74.677999997601
H   100.023955056926  67.986639089042  75.257478267655
O   97.956999996853  68.244999997808  72.501999997671
P   97.874999996856  67.148999997843  71.336999997708
O   99.218999996813  67.064999997846  70.736999997728
O   96.699999996893  67.449999997833  70.485999997736
O   97.605999996864  65.778999997887  72.098999997684
C   98.231999996844  64.577999997925  71.670999997698
H   99.029329491034  64.812973546766  70.982253102694
H   97.486376384334  63.959948658076  71.186249588570
C   98.809999996826  63.836999997949  72.845999997660
H   99.470526513620  64.491013174701  73.401796633773
O   97.733999996860  63.417999997963  73.716999997632
C   98.140999996847  62.280999997999  74.388999997610
H   98.412466108961  62.517693071809  75.410658838504
N   96.984999996884  61.375999998028  74.518999997606
C   96.507999996900  60.820999998046  75.678999997569
H   96.992117134764  61.011123480125  76.615494381311
N   95.439999996934  60.084999998070  75.517999997574
C   95.192999996942  60.151999998068  74.154999997618
C   94.178999996974  59.600999998085  73.349999997644
N   93.196999997006  58.835999998110  73.828999997628
H   92.595948520310  58.396665767394  73.169400810337
H   93.314246646142  58.409007713834  74.719129805640
N   94.202999996974  59.875999998076  72.028999997686
C   95.187999996942  60.647999998052  71.553999997701
H   95.156752879088  60.827055409971  70.495494997028
N   96.195999996910  61.222999998033  72.207999997680
C   96.139999996911  60.937999998042  73.521999997638
C   99.568999996801  62.559999997990  72.491999997671
H   99.122541132188  62.117761343150  71.608662054407
C   99.336999996809  61.644999998020  73.688999997633
H   99.145065749128  60.621746512938  73.401905179802
O   100.399999996775  61.685999998018  74.639999997602
H   100.139611114563  61.193611841814  75.403563522779
O   100.963999996756  62.759999997984  72.324999997677
C   97.633999996863  56.517999998184  73.820999997628
N   96.254999996908  56.083999998198  73.819999997628
C   95.649999996927  55.718999998210  74.982999997591
O   94.387999996968  56.211999998194  75.003999997590
C   93.337999997001  55.242999998225  75.136999997586
C   92.794999997019  55.251999998225  76.567999997540
C   92.904999997015  56.604999998182  77.281999997517
C   92.615999997025  56.529999998184  78.784999997469
C   93.471999996997  55.443999998219  79.440999997448
C   94.170999996975  55.874999998205  80.685999997408
O   96.162999996911  55.049999998231  75.864999997563
C   97.849999996857  57.662999998148  72.832999997660
C   98.751999996828  57.310999998159  71.648999997698
C   100.233999996780  57.243999998161  72.029999997686
C   101.203999996749  58.115999998133  71.196999997713
C   101.852999996728  57.331999998158  70.044999997750
O   101.251999996747  56.054999998199  69.859999997756
C   100.551999996770  59.418999998091  70.704999997729
O   101.547999996738  60.422999998059  70.536999997734
P   101.804999996729  61.614999998021  71.598999997700
O   102.910999996694  60.813999998046  72.544999997669
O   102.953999996693  62.373999997996  70.762999997727
H   97.923091329754  56.797441379691  74.826590111056
H   98.265614424056  55.680931613142  73.548418601341
H   95.665721583744  56.707935385575  73.318710368646
H   92.598074716257  55.528414122216  74.402460500612
H   93.715405136062  54.262274379991  74.887312637208
H   93.335057811300  54.494973946786  77.115379742475
H   91.754962974540  54.928815416112  76.542564566193
H   93.908647153084  56.987019276243  77.156495123260
H   92.237475462787  57.328052535006  76.817294112238
H   92.812737148354  57.502368153947  79.219934962232
H   91.562482656339  56.321304542389  78.955938076858
H   94.195626569377  55.088000821082  78.715083956449
H   92.871758604512  54.573857512277  79.670494766034
H   93.734000326497  55.210501801197  81.432823372248
H   98.269615756649  58.515770508383  73.351392056491
H   96.889047429533  57.998362643302  72.453680820825
H   98.413771943484  56.364430729056  71.227587285597
H   98.574204557423  58.048672214693  70.877871229566
H   100.579344099233  56.221773853784  72.022946237914
H   100.329675044450  57.582983365519  73.058209734604
H   101.986690741162  58.467828640750  71.857728528190
H   102.892792326093  57.127874671192  70.249878804955
H   101.811364746493  57.899340770957  69.120576760650
H   100.363811993541  56.180134532077  69.553084963381
H   99.792402431073  59.742682496528  71.407949782305
H   100.056657940054  59.292524944148  69.746409519386
H   93.672577448288  56.795831062828  80.949657782698
N   95.523999996931  59.571999998086  84.061999997299
C   95.406999996935  59.916999998075  85.451999997255
C   96.271999996907  59.130999998100  86.383999997225
N   95.618999996928  58.480999998121  87.386999997193
C   94.286999996971  58.451999998122  87.637999997185
C   93.377999997000  59.116999998101  86.633999997217
C   94.048999996979  60.326999998062  85.979999997238
O   93.847999996985  57.910999998140  88.640999997152
O   97.462999996869  59.019999998104  86.251999997229
C   95.595999996929  60.477999998057  83.076999997331
O   95.593999996929  61.686999998018  83.219999997327
C   95.688999996926  59.709999998082  81.822999997371
C   95.615999996928  58.360999998125  82.136999997361
C   95.498999996932  58.274999998128  83.619999997314
O   95.407999996935  57.288999998160  84.326999997291
C   95.660999996927  57.383999998157  81.129999997394
C   95.814999996922  57.836999998142  79.799999997436
C   95.889999996919  59.199999998098  79.496999997446
C   95.824999996922  60.160999998067  80.513999997413
N   95.584999996929  56.050999998199  81.380999997386
H   95.887682311533  60.920484640121  85.441929985869
H   96.201764896637  57.965269892237  88.007928228667
H   92.473468105856  59.381413835657  87.165610645265
H   93.113918722586  58.376731075939  85.883120620059
H   93.445829442461  60.686578108312  85.157116232069
H   94.116309555129  61.151720430011  86.682840839875
H   95.893364486329  57.106564322916  79.016819415547
H   95.992292858667  59.497469274493  78.470486234634
H   95.879214773643  61.211249697017  80.300453190803
H   95.421342286658  55.863813194119  82.345613463510
