141
conf-02; fixed-heavy-atom HF/6-31G* ESP conformer; H6 coordinates were not QM optimized
H   106.967869812256  37.898162366130  84.121439440303
O   106.914999996565  38.444999998765  83.349999997322
C   105.856999996599  37.953999998781  82.531999997349
H   106.142707323553  37.019311870202  82.061159905455
H   105.709439163451  38.686000190858  81.753634602975
C   104.606999996639  37.771999998787  83.356999997322
H   104.283863381289  36.735417139858  83.349235262042
O   104.872999996631  38.148999998774  84.717999997278
C   103.561999996673  38.172999998774  85.344999997258
H   103.214670362710  37.169181541654  85.496471226738
N   103.494999996675  38.804999998753  86.685999997215
C   104.109999996655  39.982999998716  86.973999997206
H   104.673893600477  40.422103405824  86.174154439210
C   104.010999996659  40.533999998698  88.179999997167
H   104.503325472723  41.464479941994  88.392954793107
C   103.253999996683  39.857999998720  89.178999997135
N   103.131999996687  40.359999998703  90.413999997095
H   102.427637418481  39.941411209206  90.981222975994
H   103.309369781732  41.327551432108  90.562947372758
N   102.646999996702  38.707999998756  88.916999997144
C   102.744999996699  38.158999998774  87.684999997183
O   102.177999996717  37.086999998809  87.428999997191
C   103.410999996678  38.637999998759  82.983999997334
H   103.755734629711  39.582366853585  82.594310694803
C   102.664999996702  38.861999998752  84.308999997292
H   102.543499040016  39.917568809633  84.523195194957
O   101.395999996743  38.215999998772  84.319999997291
H   101.155442285607  38.020176700001  83.416313398093
O   102.571999996705  37.982999998780  82.043999997364
P   102.244999996715  38.692999998757  80.645999997409
O   100.858999996760  38.327999998769  80.299999997420
O   103.346999996680  38.403999998766  79.699999997440
O   102.259999996715  40.247999998707  80.977999997399
C   101.314999996745  41.123999998679  80.382999997418
H   100.524330254359  40.544952999615  79.928683947656
H   101.828400927413  41.707073433474  79.623485909884
C   100.717999996764  42.039999998649  81.418999997384
H   100.301717059156  41.450538706565  82.225406542133
O   101.756999996731  42.899999998622  81.948999997367
C   101.233999996748  44.175999998581  82.203999997359
H   101.304702693025  44.424771851696  83.249065538476
N   102.062999996721  45.180999998549  81.503999997382
C   102.492999996707  45.155999998549  80.197999997424
H   102.278330807723  44.329076700056  79.556149528232
N   103.191999996685  46.207999998516  79.847999997435
C   103.235999996684  46.976999998491  81.000999997398
C   103.811999996665  48.229999998451  81.280999997389
N   104.499999996643  48.951999998427  80.392999997417
H   105.027071712654  49.722869855996  80.735129085972
H   104.792128745901  48.518872400197  79.545982386245
N   103.654999996670  48.726999998435  82.525999997349
C   102.965999996692  48.008999998458  83.419999997320
H   102.879410031182  48.459521540234  84.392188962085
N   102.376999996711  46.824999998496  83.277999997325
C   102.547999996706  46.355999998511  82.029999997365
C   99.633999996799  42.975999998619  80.897999997401
H   99.810159808681  43.225110435364  79.856125578824
C   99.771999996795  44.224999998579  81.758999997373
H   99.537780839091  45.131638849863  81.219427709130
O   98.954999996821  44.171999998581  82.925999997336
H   98.419316060407  43.372659266615  82.912899507995
O   98.320999996841  42.475999998635  81.042999997396
C   95.262999996940  45.614999998535  77.441999997512
N   96.073999996914  46.786999998497  77.668999997505
C   97.358999996872  46.694999998500  78.103999997491
O   97.734999996860  47.859999998462  78.685999997472
C   99.039999996818  48.357999998446  78.359999997483
C   100.022999996787  47.998999998458  79.473999997447
C   99.718999996796  48.619999998438  80.842999997403
C   98.493999996836  49.539999998408  80.808999997404
C   98.846999996824  50.949999998363  80.337999997419
C   98.081999996849  51.944999998331  81.141999997393
O   98.073999996849  45.711999998531  77.996999997494
C   93.759999996988  45.892999998526  77.533999997509
C   93.017999997012  44.883999998558  78.421999997481
C   93.533999996995  44.864999998559  79.862999997434
C   93.564999996994  43.481999998603  80.555999997412
C   92.225999997037  42.742999998627  80.394999997417
O   91.131999997072  43.608999998599  80.641999997409
C   94.767999996956  42.628999998631  80.104999997427
O   95.445999996934  42.113999998647  81.239999997390
P   96.970999996885  41.627999998663  81.029999997397
O   97.162999996879  41.012999998682  82.567999997347
O   96.621999996896  40.197999998709  80.380999997418
H   95.496788169418  45.218039266761  76.460038705078
H   95.558954365515  44.852718866837  78.144112143235
H   95.612713987142  47.622371962233  77.947740129256
H   99.364639031161  47.902234718842  77.434620935051
H   98.925877194364  49.414936942045  78.196417611296
H   101.011913849255  48.294347298731  79.133177987186
H   100.041851783274  46.920564460183  79.531464699357
H   99.535590442953  47.826437377913  81.557715084435
H   100.573895146949  49.172115594500  81.216369475805
H   97.670945532689  49.125969884205  80.263204413948
H   98.154466448947  49.635085001404  81.838035250909
H   98.713137956348  51.095033198624  79.270799365345
H   99.881257029206  51.186085989706  80.561550605098
H   98.396749027273  51.768329491463  82.166686481168
H   93.322692793540  45.903373721905  76.540291007147
H   93.596742930006  46.891079142978  77.941341992916
H   91.954686803289  45.090585208057  78.408696225176
H   93.142680300447  43.902822294854  77.968342597343
H   92.907814147150  45.531847257527  80.447782061038
H   94.535712724605  45.275993065152  79.920133509682
H   93.720803629824  43.662620965250  81.615433686280
H   92.197213864947  41.880351902931  81.053418744590
H   92.092856287724  42.389741654741  79.381913646291
H   91.205051412069  43.918606935651  81.537641261168
H   95.437581898532  43.246266694666  79.514866728427
H   94.466252923466  41.794202273205  79.482095563651
H   98.528275447969  52.901096476119  80.904725740445
N   95.968999996917  55.622999998213  84.209999997295
C   95.741999996924  55.872999998205  85.605999997250
C   96.640999996895  55.135999998229  86.547999997220
N   96.014999996915  54.354999998254  87.470999997190
C   94.684999996958  54.173999998260  87.649999997184
C   93.767999996988  54.788999998240  86.631999997217
C   94.321999996970  56.101999998198  86.080999997235
O   94.261999996972  53.530999998280  88.594999997154
O   97.829999996857  55.162999998228  86.473999997222
C   95.990999996916  56.585999998182  83.280999997325
O   95.840999996921  57.775999998144  83.484999997318
C   96.232999996908  55.905999998204  81.995999997366
C   96.297999996906  54.542999998248  82.234999997358
C   96.114999996912  54.359999998254  83.699999997311
O   96.099999996913  53.335999998287  84.350999997290
C   96.507999996900  53.634999998277  81.184999997392
C   96.664999996895  54.170999998260  79.889999997433
C   96.609999996896  55.554999998215  79.663999997441
C   96.384999996904  56.442999998187  80.721999997407
N   96.551999996898  52.294999998320  81.358999997386
H   96.105018338751  56.920928915126  85.664565523542
H   96.618761063223  53.889638274680  88.114085557308
H   92.808250390691  54.917852722892  87.114583935677
H   93.640888255956  54.070284597111  85.826213583892
H   93.719854731999  56.437023687452  85.247076039738
H   94.264655937325  56.883913895981  86.832267275003
H   96.813842473745  53.491398391602  79.072498629536
H   96.730436266898  55.929932421042  78.664381339354
H   96.331940554574  57.503580138601  80.565724791549
H   96.309137323972  52.017693101499  82.288124487489
